! RI BP86 def2-SVP def2/J D3BJ TIGHTSCF Opt
* xyzfile 0 1 156613987.xyz
